p cnf 48 397
1 2 3 0
-1 -2 0
-1 -3 0
-2 -3 0
4 5 6 0
-4 -5 0
-4 -6 0
-5 -6 0
7 8 9 0
-7 -8 0
-7 -9 0
-8 -9 0
10 11 12 0
-10 -11 0
-10 -12 0
-11 -12 0
13 14 15 0
-13 -14 0
-13 -15 0
-14 -15 0
16 17 18 0
-16 -17 0
-16 -18 0
-17 -18 0
19 20 21 0
-19 -20 0
-19 -21 0
-20 -21 0
22 23 24 0
-22 -23 0
-22 -24 0
-23 -24 0
25 26 27 0
-25 -26 0
-25 -27 0
-26 -27 0
28 29 30 0
-28 -29 0
-28 -30 0
-29 -30 0
31 32 33 0
-31 -32 0
-31 -33 0
-32 -33 0
34 35 36 0
-34 -35 0
-34 -36 0
-35 -36 0
37 38 39 0
-37 -38 0
-37 -39 0
-38 -39 0
40 41 42 0
-40 -41 0
-40 -42 0
-41 -42 0
43 44 45 0
-43 -44 0
-43 -45 0
-44 -45 0
46 47 48 0
-46 -47 0
-46 -48 0
-47 -48 0
42 0
-1 -4 -7 0
-2 -5 -8 0
-3 -6 -9 0
-1 -7 -10 0
-2 -8 -11 0
-3 -9 -12 0
-1 -10 -13 0
-2 -11 -14 0
-3 -12 -15 0
-1 -13 -16 0
-2 -14 -17 0
-3 -15 -18 0
-1 -16 -19 0
-2 -17 -20 0
-3 -18 -21 0
-1 -19 -22 0
-2 -20 -23 0
-3 -21 -24 0
-1 -22 -25 0
-2 -23 -26 0
-3 -24 -27 0
-1 -25 -28 0
-2 -26 -29 0
-3 -27 -30 0
-1 -28 -31 0
-2 -29 -32 0
-3 -30 -33 0
-1 -31 -34 0
-2 -32 -35 0
-3 -33 -36 0
-1 -34 -37 0
-2 -35 -38 0
-3 -36 -39 0
-1 -37 -40 0
-2 -38 -41 0
-3 -39 -42 0
-1 -40 -43 0
-2 -41 -44 0
-3 -42 -45 0
-1 -43 -46 0
-2 -44 -47 0
-3 -45 -48 0
-4 -7 -13 0
-5 -8 -14 0
-6 -9 -15 0
-4 -10 -16 0
-5 -11 -17 0
-6 -12 -18 0
-4 -13 -19 0
-5 -14 -20 0
-6 -15 -21 0
-4 -16 -22 0
-5 -17 -23 0
-6 -18 -24 0
-4 -19 -25 0
-5 -20 -26 0
-6 -21 -27 0
-4 -22 -28 0
-5 -23 -29 0
-6 -24 -30 0
-4 -25 -31 0
-5 -26 -32 0
-6 -27 -33 0
-4 -28 -34 0
-5 -29 -35 0
-6 -30 -36 0
-4 -31 -37 0
-5 -32 -38 0
-6 -33 -39 0
-4 -34 -40 0
-5 -35 -41 0
-6 -36 -42 0
-4 -37 -43 0
-5 -38 -44 0
-6 -39 -45 0
-4 -40 -46 0
-5 -41 -47 0
-6 -42 -48 0
-7 -10 -19 0
-8 -11 -20 0
-9 -12 -21 0
-7 -13 -22 0
-8 -14 -23 0
-9 -15 -24 0
-7 -16 -25 0
-8 -17 -26 0
-9 -18 -27 0
-7 -19 -28 0
-8 -20 -29 0
-9 -21 -30 0
-7 -22 -31 0
-8 -23 -32 0
-9 -24 -33 0
-7 -25 -34 0
-8 -26 -35 0
-9 -27 -36 0
-7 -28 -37 0
-8 -29 -38 0
-9 -30 -39 0
-7 -31 -40 0
-8 -32 -41 0
-9 -33 -42 0
-7 -34 -43 0
-8 -35 -44 0
-9 -36 -45 0
-7 -37 -46 0
-8 -38 -47 0
-9 -39 -48 0
-10 -13 -25 0
-11 -14 -26 0
-12 -15 -27 0
-10 -16 -28 0
-11 -17 -29 0
-12 -18 -30 0
-10 -19 -31 0
-11 -20 -32 0
-12 -21 -33 0
-10 -22 -34 0
-11 -23 -35 0
-12 -24 -36 0
-10 -25 -37 0
-11 -26 -38 0
-12 -27 -39 0
-10 -28 -40 0
-11 -29 -41 0
-12 -30 -42 0
-10 -31 -43 0
-11 -32 -44 0
-12 -33 -45 0
-10 -34 -46 0
-11 -35 -47 0
-12 -36 -48 0
-13 -16 -31 0
-14 -17 -32 0
-15 -18 -33 0
-13 -19 -34 0
-14 -20 -35 0
-15 -21 -36 0
-13 -22 -37 0
-14 -23 -38 0
-15 -24 -39 0
-13 -25 -40 0
-14 -26 -41 0
-15 -27 -42 0
-13 -28 -43 0
-14 -29 -44 0
-15 -30 -45 0
-13 -31 -46 0
-14 -32 -47 0
-15 -33 -48 0
-16 -19 -37 0
-17 -20 -38 0
-18 -21 -39 0
-16 -22 -40 0
-17 -23 -41 0
-18 -24 -42 0
-16 -25 -43 0
-17 -26 -44 0
-18 -27 -45 0
-16 -28 -46 0
-17 -29 -47 0
-18 -30 -48 0
-19 -22 -43 0
-20 -23 -44 0
-21 -24 -45 0
-19 -25 -46 0
-20 -26 -47 0
-21 -27 -48 0
-7 -16 0
-8 -17 0
-9 -18 0
-10 -22 0
-11 -23 0
-12 -24 0
-13 -28 0
-14 -29 0
-15 -30 0
-16 -34 0
-17 -35 0
-18 -36 0
-19 -40 0
-20 -41 0
-21 -42 0
-22 -46 0
-23 -47 0
-24 -48 0
-1 -46 -7 0
-2 -47 -8 0
-4 -43 -7 0
-5 -44 -8 0
-4 -46 -10 0
-5 -47 -11 0
-7 -40 -7 0
-8 -41 -8 0
-7 -43 -10 0
-8 -44 -11 0
-7 -46 -13 0
-8 -47 -14 0
-10 -37 -7 0
-11 -38 -8 0
-10 -40 -10 0
-11 -41 -11 0
-10 -43 -13 0
-11 -44 -14 0
-10 -46 -16 0
-11 -47 -17 0
-13 -34 -7 0
-14 -35 -8 0
-13 -37 -10 0
-14 -38 -11 0
-13 -40 -13 0
-14 -41 -14 0
-13 -43 -16 0
-14 -44 -17 0
-13 -46 -19 0
-14 -47 -20 0
-16 -31 -7 0
-17 -32 -8 0
-16 -34 -10 0
-17 -35 -11 0
-16 -37 -13 0
-17 -38 -14 0
-16 -40 -16 0
-17 -41 -17 0
-16 -43 -19 0
-17 -44 -20 0
-16 -46 -22 0
-17 -47 -23 0
-19 -28 -7 0
-20 -29 -8 0
-19 -31 -10 0
-20 -32 -11 0
-19 -34 -13 0
-20 -35 -14 0
-19 -37 -16 0
-20 -38 -17 0
-19 -40 -19 0
-20 -41 -20 0
-19 -43 -22 0
-20 -44 -23 0
-19 -46 -25 0
-20 -47 -26 0
-22 -25 -7 0
-23 -26 -8 0
-22 -28 -10 0
-23 -29 -11 0
-22 -31 -13 0
-23 -32 -14 0
-22 -34 -16 0
-23 -35 -17 0
-22 -37 -19 0
-23 -38 -20 0
-22 -40 -22 0
-23 -41 -23 0
-22 -43 -25 0
-23 -44 -26 0
-22 -46 -28 0
-23 -47 -29 0
-25 -10 0
-26 -11 0
-25 -28 -13 0
-26 -29 -14 0
-25 -31 -16 0
-26 -32 -17 0
-25 -34 -19 0
-26 -35 -20 0
-25 -37 -22 0
-26 -38 -23 0
-25 -40 -25 0
-26 -41 -26 0
-25 -43 -28 0
-26 -44 -29 0
-25 -46 -31 0
-26 -47 -32 0
-28 -16 0
-29 -17 0
-28 -31 -19 0
-29 -32 -20 0
-28 -34 -22 0
-29 -35 -23 0
-28 -37 -25 0
-29 -38 -26 0
-28 -40 -28 0
-29 -41 -29 0
-28 -43 -31 0
-29 -44 -32 0
-28 -46 -34 0
-29 -47 -35 0
-31 -22 0
-32 -23 0
-31 -34 -25 0
-32 -35 -26 0
-31 -37 -28 0
-32 -38 -29 0
-31 -40 -31 0
-32 -41 -32 0
-31 -43 -34 0
-32 -44 -35 0
-31 -46 -37 0
-32 -47 -38 0
-34 -28 0
-35 -29 0
-34 -37 -31 0
-35 -38 -32 0
-34 -40 -34 0
-35 -41 -35 0
-34 -43 -37 0
-35 -44 -38 0
-34 -46 -40 0
-35 -47 -41 0
-37 -34 0
-38 -35 0
-37 -40 -37 0
-38 -41 -38 0
-37 -43 -40 0
-38 -44 -41 0
-37 -46 -43 0
-38 -47 -44 0
-40 -40 0
-41 -41 0
-40 -43 -43 0
-41 -44 -44 0
-40 -46 -46 0
-41 -47 -47 0
-43 -46 0
-44 -47 0
-43 -46 -7 0
-44 -47 -8 0
-46 -10 0
-47 -11 0
-45 -48 -9 0
-48 -12 0
